.Version 8.3.1 of ABINIT

 ABINIT is a project of the Universite Catholique de Louvain,
 Corning Inc. and other collaborators, see ~abinit/doc/developers/contributors.txt .
 Please read ~abinit/doc/users/acknowledgments.html for suggested
 acknowledgments of the ABINIT effort.

.Starting date : Tue 11 Apr 2017.
- ( at 16h11 )

- input  file    -> calc.in
- output file    -> calc.out
- root for input  files -> input_data/idat
- root for output files -> out_data/odat

 Symmetries : space group P1 (#  1); Bravais aP (primitive triclinic)
     intxc =       0      iscf =      -2    lmnmax =       1     lnmax =       1
     mgfft =      16  mpssoang =       2    mqgrid =    3001     natom =       2
  nloc_mem =       1    nspden =       1   nspinor =       1    nsppol =       1
      nsym =       1    n1xccc =    2501    ntypat =       2    occopt =       1
   xclevel =       1
-    mband =           8        mffmem =           1         mkmem =           1
-   mkqmem =           1        mk1mem =           1           mpw =         169
      nfft =        4096          nkpt =           1
  Rough estimation (10% accuracy) of disk space for files :

------------- Echo of variables that govern the present computation ------------
-
- outvars: echo of selected default values
-   iomode0 =  0 , fftalg0 =112 , wfoptalg0 =  0
-
- outvars: echo of global parameters not present in the input file
-  max_nthreads =    0
-
 -outvars: echo values of preprocessed input variables --------
            acell      1.0000000000E+00  1.0000000000E+00  1.0000000000E+00 Bohr
              amu      6.94100000E+00  1.89984032E+01
        autoparal           1
           diemac      9.00000000E+00
             ecut      1.00000000E+01 Hartree
    elph2_imagden      1.83746627E-03 Hartree
           enunit           2
-          fftalg         112
          ieig2rf           5
           irdwfk           1
           irdwfq           1
          ird1den           1
             iscf          -2
           istwfk        1
           kptopt           3
         kptrlatt        1    0    0      0    1    0      0    0    1
          kptrlen      5.44684916E+00
P           mkmem           1
P          mkqmem           1
P          mk1mem           1
            natom           2
            nband           8
            ngfft          16      16      16
             nkpt           1
           nnsclo          40
             nqpt           1
             nsym           1
           ntypat           2
        optdriver           1
        optforces           1
          rfatpol           1       2
            rfdir           1       1       1
           rfphon           1
            rprim      0.0000000000E+00  3.8515039744E+00  3.8515039744E+00
                       3.8515039744E+00  0.0000000000E+00  3.8515039744E+00
                       3.8515039744E+00  3.8515039744E+00  0.0000000000E+00
          spgroup           1
           tolwfr      1.00000000E-18
            typat      1  2
           xangst      0.0000000000E+00  0.0000000000E+00  0.0000000000E+00
                       2.0381281221E+00  2.0381281221E+00  2.0381281221E+00
            xcart      0.0000000000E+00  0.0000000000E+00  0.0000000000E+00
                       3.8515039744E+00  3.8515039744E+00  3.8515039744E+00
             xred      0.0000000000E+00  0.0000000000E+00  0.0000000000E+00
                       5.0000000000E-01  5.0000000000E-01  5.0000000000E-01
            znucl        3.00000    9.00000

 chkinp: Checking input parameters for consistency.

== DATASET  1 ==================================================================
-   nproc =    4

 Real(R)+Recip(G) space primitive vectors, cartesian coordinates (Bohr,Bohr^-1):
 R(1)=  0.0000000  3.8515040  3.8515040  G(1)= -0.1298194  0.1298194  0.1298194
 R(2)=  3.8515040  0.0000000  3.8515040  G(2)=  0.1298194 -0.1298194  0.1298194
 R(3)=  3.8515040  3.8515040  0.0000000  G(3)=  0.1298194  0.1298194 -0.1298194
 Unit cell volume ucvol=  1.1426706E+02 bohr^3
 Angles (23,13,12)=  6.00000000E+01  6.00000000E+01  6.00000000E+01 degrees
 setup1 : take into account q-point for computing boxcut.

 getcut: wavevector=  0.0000  0.0000  0.0000  ngfft=  16  16  16
         ecut(hartree)=     10.000   => boxcut(ratio)=   2.06352

--- Pseudopotential description ------------------------------------------------
- pspini: atom type   1  psp file is ../../../../Data/Pseudos/03-Li.LDA.TM.pspnc
- pspatm: opening atomic psp file    ../../../../Data/Pseudos/03-Li.LDA.TM.pspnc
-  Troullier-Martins psp for element  Li        Thu Oct 27 17:29:06 EDT 1994
-  3.00000   1.00000    940714                znucl, zion, pspdat
    1    1    1    1      2001   0.00000      pspcod,pspxc,lmax,lloc,mmax,r2well
    0   2.534   6.726    1   2.4315963        l,e99.0,e99.9,nproj,rcpsp
   0.00000000   0.00000000   0.00000000   0.00000000     rms, ekb1, ekb2, epsatm
    1   3.283   5.836    0   2.4315963        l,e99.0,e99.9,nproj,rcpsp
   0.00000000   0.00000000   0.00000000   0.00000000     rms, ekb1, ekb2, epsatm
    2.44451305764117    0.01373030920382    0.17502673260160   rchrg,fchrg,qchrg
 pspatm: epsatm=   -1.77437869
         --- l  ekb(1:nproj) -->
             0    1.242797
 pspatm: atomic psp has been read  and splines computed

- pspini: atom type   2  psp file is ../../../../Data/Pseudos/09-F.LDA.TM.pspnc
- pspatm: opening atomic psp file    ../../../../Data/Pseudos/09-F.LDA.TM.pspnc
-  Troullier-Martins psp for element  F         Thu Oct 27 17:30:08 EDT 1994
-  9.00000   7.00000    940714                znucl, zion, pspdat
    1    1    1    1      2001   0.00000      pspcod,pspxc,lmax,lloc,mmax,r2well
    0   6.771  17.439    1   1.3876018        l,e99.0,e99.9,nproj,rcpsp
   0.00000000   0.00000000   0.00000000   0.00000000     rms, ekb1, ekb2, epsatm
    1  24.372  32.350    0   1.3876018        l,e99.0,e99.9,nproj,rcpsp
   0.00000000   0.00000000   0.00000000   0.00000000     rms, ekb1, ekb2, epsatm
    0.49406148701180    6.36128955091623    0.66947621353748   rchrg,fchrg,qchrg
 pspatm: epsatm=    1.80528525
         --- l  ekb(1:nproj) -->
             0    6.310228
 pspatm: atomic psp has been read  and splines computed

-inwffil : will read wavefunctions from disk file input_data/idat_WFK

 ==>  initialize data related to q vector <==

 The list of irreducible perturbations for this q vector is:
    1)    idir= 1    ipert=   1
    2)    idir= 2    ipert=   1
    3)    idir= 3    ipert=   1
    4)    idir= 1    ipert=   2
    5)    idir= 2    ipert=   2
    6)    idir= 3    ipert=   2

 Perturbation wavevector (in red.coord.)   0.000000  0.000000  0.000000
 Perturbation : displacement of atom   1   along direction   1
 The set of symmetries contains only one element for this perturbation.
 symkpt : not enough symmetry to change the number of k points.

[...]

-inwffil : will read wavefunctions from disk file input_data/idat_WFQ
 Initialisation of the first-order wave-functions :
  ireadwf=   0

 ----iterations are completed or convergence reached----

 Mean square residual over all n,k,spin=   4.2489E-19; max=  8.2630E-19

 Thirteen components of 2nd-order total energy (hartree) are
 1,2,3: 0th-order hamiltonian combined with 1st-order wavefunctions
     kin0=   2.20322834E+00 eigvalue=  -1.16438524E-01  local=  -8.87662318E-01
 4,5,6: 1st-order hamiltonian combined with 1st and 0th-order wfs
 loc psp =  -1.14744965E-01  Hartree=   4.05351110E-02     xc=  -3.06250313E-02
 note that "loc psp" includes a xc core correction that could be resolved
 7,8,9: eventually, occupation + non-local contributions
    edocc=   3.40251848E-01     enl0=   7.53258024E-01   enl1=  -4.66550976E+00
 1-9 gives the relaxation energy (to be shifted if some occ is /=2.0)
   erelax=  -2.47770728E+00
 10,11,12 Non-relaxation  contributions : frozen-wavefunctions and Ewald
 fr.local=  -8.18155753E+00 fr.nonlo=   3.22116259E+00  Ewald=   7.61300822E+00
 13,14 Frozen wf xc core corrections (1) and (2)
 frxc 1  =  -1.21189953E-01  frxc 2 =  -7.92082621E-02
 Resulting in :
 2DEtotal=   -0.2549221443E-01 Ha. Also 2DEtotal=   -0.693678432225E+00 eV
    (2DErelax=   -2.4777072758E+00 Ha. 2DEnonrelax=    2.4522150614E+00 Ha)
    (  non-var. 2DEtotal :    6.2087700657E-02 Ha)

[...]

 Perturbation wavevector (in red.coord.)   0.000000  0.000000  0.000000
 Perturbation : displacement of atom   2   along direction   3
 The set of symmetries contains only one element for this perturbation.
 symkpt : not enough symmetry to change the number of k points.

-inwffil : will read wavefunctions from disk file input_data/idat_WFK

-inwffil : will read wavefunctions from disk file input_data/idat_WFQ
 Initialisation of the first-order wave-functions :
  ireadwf=   0

 ----iterations are completed or convergence reached----

 Mean square residual over all n,k,spin=   2.7624E-19; max=  9.1930E-19

 Thirteen components of 2nd-order total energy (hartree) are
 1,2,3: 0th-order hamiltonian combined with 1st-order wavefunctions
     kin0=   1.11420290E+03 eigvalue=  -2.08264647E+01  local=  -3.78975205E+02
 4,5,6: 1st-order hamiltonian combined with 1st and 0th-order wfs
 loc psp =  -1.60906567E+03  Hartree=   3.30633301E+02     xc=  -7.41734953E+01
 note that "loc psp" includes a xc core correction that could be resolved
 7,8,9: eventually, occupation + non-local contributions
    edocc=   7.48492924E+01     enl0=   1.13333219E+02   enl1=  -7.35208057E+02
 1-9 gives the relaxation energy (to be shifted if some occ is /=2.0)
   erelax=  -1.18523019E+03
 10,11,12 Non-relaxation  contributions : frozen-wavefunctions and Ewald
 fr.local=   8.64637398E+02 fr.nonlo=   3.88603881E+02  Ewald=   7.61300822E+00
 13,14 Frozen wf xc core corrections (1) and (2)
 frxc 1  =  -1.15383370E+02  frxc 2 =   1.19710848E+02
 Resulting in :
 2DEtotal=    0.7995157851E+02 Ha. Also 2DEtotal=    0.217559309315E+04 eV
    (2DErelax=   -1.1852301870E+03 Ha. 2DEnonrelax=    1.2651817655E+03 Ha)
    (  non-var. 2DEtotal :    9.3044899617E+01 Ha)

 ---- first-order wavefunction calculations are completed ----

 ==> Compute Derivative Database <==

  2nd-order matrix (non-cartesian coordinates, masses not included,
   asr not included )
     j1       j2             matrix element
  dir pert dir pert     real part     imaginary part

   1    1   1    1         0.0620877007         0.0000000000
   1    1   2    1         0.0310438511         0.0000000000
   1    1   3    1         0.0310438502         0.0000000000
   1    1   1    2        -0.3389553178         0.0000000000
   1    1   2    2        -0.1694776582         0.0000000000
   1    1   3    2        -0.1694776595         0.0000000000

[...]

  Dynamical matrix, in cartesian coordinates,
   if specified in the inputs, asr has been imposed
     j1       j2             matrix element
  dir pert dir pert     real part    imaginary part

[...]

   3    2   1    1        -0.0000000001         0.0000000000
   3    2   2    1        -0.0000000000         0.0000000000
   3    2   3    1        -0.6932966634         0.0000000000
   3    2   1    2        -0.0000000016         0.0000000000
   3    2   2    2        -0.0000000007         0.0000000000
   3    2   3    2         3.1361864615         0.0000000000

  Phonon wavevector (reduced coordinates) :  0.00000  0.00000  0.00000
 Phonon energies in Hartree :
  -1.693358E-03 -1.693358E-03 -1.693358E-03  9.674214E-03  9.674214E-03
   9.674214E-03
 Phonon energies in meV     :
- -4.607863E+01 -4.607862E+01 -4.607862E+01  2.632487E+02  2.632487E+02
-  2.632487E+02
 Phonon frequencies in cm-1    :
- -3.716492E+02 -3.716492E+02 -3.716492E+02  2.123245E+03  2.123245E+03
-  2.123245E+03
 Phonon frequencies in Thz     :
- -1.114176E+01 -1.114176E+01 -1.114176E+01  6.365327E+01  6.365327E+01
-  6.365327E+01
 Phonon energies in Kelvin  :
- -5.347196E+02 -5.347196E+02 -5.347196E+02  3.054871E+03  3.054871E+03
-  3.054871E+03
 Components of second-order derivatives of the electronic energy, EIGR2D.
 For automatic tests, printing the matrix for the first k-point, first band, first atom.
   1   1   1   1   -4.0955884869E-03    0.0000000000E+00
   1   1   2   1   -2.0477942441E-03    0.0000000000E+00
   1   1   3   1   -2.0477942431E-03    0.0000000000E+00
   2   1   1   1   -2.0477942441E-03    0.0000000000E+00
   2   1   2   1   -4.0955884882E-03    0.0000000000E+00
   2   1   3   1   -2.0477942445E-03    0.0000000000E+00
   3   1   1   1   -2.0477942431E-03    0.0000000000E+00
   3   1   2   1   -2.0477942445E-03    0.0000000000E+00
   3   1   3   1   -4.0955884871E-03    0.0000000000E+00

 ---- T=0 shift of eigenenergies due to electron-phonon interation at q ----
 Warning : the total shift must be computed through anaddb,
 here, only the contribution of one q point is printed.
 Print first the electronic eigenvalues, then the q-dependent Fan shift of eigenvalues.
 Phonons at gamma, also compute the Diagonal Debye-Waller shift of eigenvalues.

 Eigenvalues (hartree) for nkpt=   1  k points:
 kpt#   1, nband=  8, wtk=  1.00000, kpt=  0.0000  0.0000  0.0000 (reduced coord)
  -1.08548    0.09394    0.09394    0.09394    0.25154    0.86290    0.86290    0.86290
 Eigenvalues (   eV  ) for nkpt=   1  k points:
 kpt#   1, nband=  8, wtk=  1.00000, kpt=  0.0000  0.0000  0.0000 (reduced coord)
 -29.53730    2.55633    2.55633    2.55633    6.84481   23.48062   23.48062   23.48062

 Fan corrections to eigenvalues at T=0 (hartree) for nkpt=   1  k points:
  (in case of degenerate eigenvalues, averaged derivative)
 kpt#   1, nband=  8, wtk=  1.00000, kpt=  0.0000  0.0000  0.0000 (reduced coord)
  -0.00380   -0.00976   -0.00976   -0.00976    0.00005   -0.00418   -0.00418   -0.00418
 Fan corrections to eigenvalues at T=0 (   eV  ) for nkpt=   1  k points:
 kpt#   1, nband=  8, wtk=  1.00000, kpt=  0.0000  0.0000  0.0000 (reduced coord)
  -0.10331   -0.26558   -0.26558   -0.26558    0.00138   -0.11381   -0.11381   -0.11381

 DDW corrections to eigenvalues at T=0 (hartree) for nkpt=   1  k points:
  (in case of degenerate eigenvalues, averaged derivative)
 kpt#   1, nband=  8, wtk=  1.00000, kpt=  0.0000  0.0000  0.0000 (reduced coord)
   0.00374    0.00970    0.00970    0.00970   -0.00011   -0.00052   -0.00052   -0.00052
 DDW corrections to eigenvalues at T=0 (   eV  ) for nkpt=   1  k points:
 kpt#   1, nband=  8, wtk=  1.00000, kpt=  0.0000  0.0000  0.0000 (reduced coord)
   0.10171    0.26386    0.26386    0.26386   -0.00288   -0.01416   -0.01416   -0.01416

 Fan+DDW corrs   to eigenvalues at T=0 (hartree) for nkpt=   1  k points:
  (in case of degenerate eigenvalues, averaged derivative)
 kpt#   1, nband=  8, wtk=  1.00000, kpt=  0.0000  0.0000  0.0000 (reduced coord)
  -0.00006   -0.00006   -0.00006   -0.00006   -0.00006   -0.00470   -0.00470   -0.00470
 Fan+DDW corrs   to eigenvalues at T=0 (   eV  ) for nkpt=   1  k points:
 kpt#   1, nband=  8, wtk=  1.00000, kpt=  0.0000  0.0000  0.0000 (reduced coord)
  -0.00161   -0.00172   -0.00172   -0.00172   -0.00151   -0.12798   -0.12798   -0.12798

== END DATASET(S) ==============================================================

 -outvars: echo values of variables after computation  --------
            acell      1.0000000000E+00  1.0000000000E+00  1.0000000000E+00 Bohr
              amu      6.94100000E+00  1.89984032E+01
        autoparal           1
           diemac      9.00000000E+00
             ecut      1.00000000E+01 Hartree
    elph2_imagden      1.83746627E-03 Hartree
           enunit           2
-          fftalg         112
          ieig2rf           5
           irdwfk           1
           irdwfq           1
          ird1den           1
             iscf          -2
           istwfk        1
           kptopt           3
         kptrlatt        1    0    0      0    1    0      0    0    1
          kptrlen      5.44684916E+00
P           mkmem           1
P          mkqmem           1
P          mk1mem           1
            natom           2
            nband           8
            ngfft          16      16      16
             nkpt           1
           nnsclo          40
             nqpt           1
             nsym           1
           ntypat           2
        optdriver           1
        optforces           1
          rfatpol           1       2
            rfdir           1       1       1
           rfphon           1
            rprim      0.0000000000E+00  3.8515039744E+00  3.8515039744E+00
                       3.8515039744E+00  0.0000000000E+00  3.8515039744E+00
                       3.8515039744E+00  3.8515039744E+00  0.0000000000E+00
          spgroup           1
           tolwfr      1.00000000E-18
            typat      1  2
           xangst      0.0000000000E+00  0.0000000000E+00  0.0000000000E+00
                       2.0381281221E+00  2.0381281221E+00  2.0381281221E+00
            xcart      0.0000000000E+00  0.0000000000E+00  0.0000000000E+00
                       3.8515039744E+00  3.8515039744E+00  3.8515039744E+00
             xred      0.0000000000E+00  0.0000000000E+00  0.0000000000E+00
                       5.0000000000E-01  5.0000000000E-01  5.0000000000E-01
            znucl        3.00000    9.00000

- Timing analysis has been suppressed with timopt=0

 Suggested references for the acknowledgment of ABINIT usage.

 Calculation completed.
.Delivered   0 WARNINGs and   0 COMMENTs to log file.