.Version 8.3.1 of ABINIT

 ABINIT is a project of the Universite Catholique de Louvain,
 Corning Inc. and other collaborators, see ~abinit/doc/developers/contributors.txt .
 Please read ~abinit/doc/users/acknowledgments.html for suggested
 acknowledgments of the ABINIT effort.

.Starting date : Tue 11 Apr 2017.
- ( at 15h45 )

- input  file    -> calc.in
- output file    -> calc.out
- root for input  files -> input_data/idat
- root for output files -> out_data/odat

 Symmetries : space group P1 (#  1); Bravais aP (primitive triclinic)
     intxc =       0      iscf =       7    lmnmax =       1     lnmax =       1
     mgfft =      16  mpssoang =       2    mqgrid =    3001     natom =       2
  nloc_mem =       1    nspden =       1   nspinor =       1    nsppol =       1
      nsym =       1    n1xccc =    2501    ntypat =       2    occopt =       1
   xclevel =       1
-    mband =           8        mffmem =           1         mkmem =          16
-   mkqmem =          16        mk1mem =          16           mpw =         190
      nfft =        4096          nkpt =          64
  Rough estimation (10% accuracy) of disk space for files :

------------- Echo of variables that govern the present computation ------------
-
- outvars: echo of selected default values
-   iomode0 =  0 , fftalg0 =112 , wfoptalg0 =  0
-
- outvars: echo of global parameters not present in the input file
-  max_nthreads =    0
-
 -outvars: echo values of preprocessed input variables --------
            acell      1.0000000000E+00  1.0000000000E+00  1.0000000000E+00 Bohr
              amu      6.94100000E+00  1.89984032E+01
           diemac      9.00000000E+00
             ecut      1.00000000E+01 Hartree
           enunit           2
-          fftalg         112
           irdden           1
           irdwfk           1
           irdwfq           1
           istwfk        1    0    1    0    0    0    0    0    1    0
                         1    0    0    0    0    0    0    0    0    0
                         0    0    0    0    0    0    0    0    0    0
                         0    0    1    0    1    0    0    0    0    0
                         1    0    1    0    0    0    0    0    0    0
                       outvar_i_n : Printing only first  50 k-points.
              kpt      0.00000000E+00  0.00000000E+00  0.00000000E+00
                       2.50000000E-01  0.00000000E+00  0.00000000E+00
                       5.00000000E-01  0.00000000E+00  0.00000000E+00
                      -2.50000000E-01  0.00000000E+00  0.00000000E+00
                       0.00000000E+00  2.50000000E-01  0.00000000E+00
                       2.50000000E-01  2.50000000E-01  0.00000000E+00
                       5.00000000E-01  2.50000000E-01  0.00000000E+00
                      -2.50000000E-01  2.50000000E-01  0.00000000E+00
                       0.00000000E+00  5.00000000E-01  0.00000000E+00
                       2.50000000E-01  5.00000000E-01  0.00000000E+00
                       5.00000000E-01  5.00000000E-01  0.00000000E+00
                      -2.50000000E-01  5.00000000E-01  0.00000000E+00
                       0.00000000E+00 -2.50000000E-01  0.00000000E+00
                       2.50000000E-01 -2.50000000E-01  0.00000000E+00
                       5.00000000E-01 -2.50000000E-01  0.00000000E+00
                      -2.50000000E-01 -2.50000000E-01  0.00000000E+00
                       0.00000000E+00  0.00000000E+00  2.50000000E-01
                       2.50000000E-01  0.00000000E+00  2.50000000E-01
                       5.00000000E-01  0.00000000E+00  2.50000000E-01
                      -2.50000000E-01  0.00000000E+00  2.50000000E-01
                       0.00000000E+00  2.50000000E-01  2.50000000E-01
                       2.50000000E-01  2.50000000E-01  2.50000000E-01
                       5.00000000E-01  2.50000000E-01  2.50000000E-01
                      -2.50000000E-01  2.50000000E-01  2.50000000E-01
                       0.00000000E+00  5.00000000E-01  2.50000000E-01
                       2.50000000E-01  5.00000000E-01  2.50000000E-01
                       5.00000000E-01  5.00000000E-01  2.50000000E-01
                      -2.50000000E-01  5.00000000E-01  2.50000000E-01
                       0.00000000E+00 -2.50000000E-01  2.50000000E-01
                       2.50000000E-01 -2.50000000E-01  2.50000000E-01
                       5.00000000E-01 -2.50000000E-01  2.50000000E-01
                      -2.50000000E-01 -2.50000000E-01  2.50000000E-01
                       0.00000000E+00  0.00000000E+00  5.00000000E-01
                       2.50000000E-01  0.00000000E+00  5.00000000E-01
                       5.00000000E-01  0.00000000E+00  5.00000000E-01
                      -2.50000000E-01  0.00000000E+00  5.00000000E-01
                       0.00000000E+00  2.50000000E-01  5.00000000E-01
                       2.50000000E-01  2.50000000E-01  5.00000000E-01
                       5.00000000E-01  2.50000000E-01  5.00000000E-01
                      -2.50000000E-01  2.50000000E-01  5.00000000E-01
                       0.00000000E+00  5.00000000E-01  5.00000000E-01
                       2.50000000E-01  5.00000000E-01  5.00000000E-01
                       5.00000000E-01  5.00000000E-01  5.00000000E-01
                      -2.50000000E-01  5.00000000E-01  5.00000000E-01
                       0.00000000E+00 -2.50000000E-01  5.00000000E-01
                       2.50000000E-01 -2.50000000E-01  5.00000000E-01
                       5.00000000E-01 -2.50000000E-01  5.00000000E-01
                      -2.50000000E-01 -2.50000000E-01  5.00000000E-01
                       0.00000000E+00  0.00000000E+00 -2.50000000E-01
                       2.50000000E-01  0.00000000E+00 -2.50000000E-01
                       outvar_i_n : Printing only first  50 k-points.
           kptopt           3
         kptrlatt        4    0    0      0    4    0      0    0    4
          kptrlen      2.17873966E+01
P           mkmem          16
P          mkqmem          16
P          mk1mem          16
            natom           2
            nband           8
            ngfft          16      16      16
             nkpt          64
           nnsclo          40
             nqpt           1
            nstep          60
             nsym           1
           ntypat           2
              occ      2.000000  2.000000  2.000000  2.000000  0.000000  0.000000
                       0.000000  0.000000
        optdriver           1
          rfatpol           1       2
            rfdir           1       1       1
           rfphon           1
            rprim      0.0000000000E+00  3.8515039744E+00  3.8515039744E+00
                       3.8515039744E+00  0.0000000000E+00  3.8515039744E+00
                       3.8515039744E+00  3.8515039744E+00  0.0000000000E+00
          spgroup           1
           tolvrs      1.00000000E-16
            typat      1  2
              wtk        0.01563    0.01563    0.01563    0.01563    0.01563    0.01563
                         0.01563    0.01563    0.01563    0.01563    0.01563    0.01563
                         0.01563    0.01563    0.01563    0.01563    0.01563    0.01563
                         0.01563    0.01563    0.01563    0.01563    0.01563    0.01563
                         0.01563    0.01563    0.01563    0.01563    0.01563    0.01563
                         0.01563    0.01563    0.01563    0.01563    0.01563    0.01563
                         0.01563    0.01563    0.01563    0.01563    0.01563    0.01563
                         0.01563    0.01563    0.01563    0.01563    0.01563    0.01563
                         0.01563    0.01563
                       outvars : Printing only first  50 k-points.
           xangst      0.0000000000E+00  0.0000000000E+00  0.0000000000E+00
                       2.0381281221E+00  2.0381281221E+00  2.0381281221E+00
            xcart      0.0000000000E+00  0.0000000000E+00  0.0000000000E+00
                       3.8515039744E+00  3.8515039744E+00  3.8515039744E+00
             xred      0.0000000000E+00  0.0000000000E+00  0.0000000000E+00
                       5.0000000000E-01  5.0000000000E-01  5.0000000000E-01
            znucl        3.00000    9.00000

 chkinp: Checking input parameters for consistency.

== DATASET  1 ==================================================================
-   nproc =    4

 Real(R)+Recip(G) space primitive vectors, cartesian coordinates (Bohr,Bohr^-1):
 R(1)=  0.0000000  3.8515040  3.8515040  G(1)= -0.1298194  0.1298194  0.1298194
 R(2)=  3.8515040  0.0000000  3.8515040  G(2)=  0.1298194 -0.1298194  0.1298194
 R(3)=  3.8515040  3.8515040  0.0000000  G(3)=  0.1298194  0.1298194 -0.1298194
 Unit cell volume ucvol=  1.1426706E+02 bohr^3
 Angles (23,13,12)=  6.00000000E+01  6.00000000E+01  6.00000000E+01 degrees
 setup1 : take into account q-point for computing boxcut.

 getcut: wavevector=  0.0000  0.0000  0.0000  ngfft=  16  16  16
         ecut(hartree)=     10.000   => boxcut(ratio)=   2.06352

--- Pseudopotential description ------------------------------------------------
- pspini: atom type   1  psp file is ../../../../Data/Pseudos/03-Li.LDA.TM.pspnc
- pspatm: opening atomic psp file    ../../../../Data/Pseudos/03-Li.LDA.TM.pspnc
-  Troullier-Martins psp for element  Li        Thu Oct 27 17:29:06 EDT 1994
-  3.00000   1.00000    940714                znucl, zion, pspdat
    1    1    1    1      2001   0.00000      pspcod,pspxc,lmax,lloc,mmax,r2well
    0   2.534   6.726    1   2.4315963        l,e99.0,e99.9,nproj,rcpsp
   0.00000000   0.00000000   0.00000000   0.00000000     rms, ekb1, ekb2, epsatm
    1   3.283   5.836    0   2.4315963        l,e99.0,e99.9,nproj,rcpsp
   0.00000000   0.00000000   0.00000000   0.00000000     rms, ekb1, ekb2, epsatm
    2.44451305764117    0.01373030920382    0.17502673260160   rchrg,fchrg,qchrg
 pspatm: epsatm=   -1.77437869
         --- l  ekb(1:nproj) -->
             0    1.242797
 pspatm: atomic psp has been read  and splines computed

- pspini: atom type   2  psp file is ../../../../Data/Pseudos/09-F.LDA.TM.pspnc
- pspatm: opening atomic psp file    ../../../../Data/Pseudos/09-F.LDA.TM.pspnc
-  Troullier-Martins psp for element  F         Thu Oct 27 17:30:08 EDT 1994
-  9.00000   7.00000    940714                znucl, zion, pspdat
    1    1    1    1      2001   0.00000      pspcod,pspxc,lmax,lloc,mmax,r2well
    0   6.771  17.439    1   1.3876018        l,e99.0,e99.9,nproj,rcpsp
   0.00000000   0.00000000   0.00000000   0.00000000     rms, ekb1, ekb2, epsatm
    1  24.372  32.350    0   1.3876018        l,e99.0,e99.9,nproj,rcpsp
   0.00000000   0.00000000   0.00000000   0.00000000     rms, ekb1, ekb2, epsatm
    0.49406148701180    6.36128955091623    0.66947621353748   rchrg,fchrg,qchrg
 pspatm: epsatm=    1.80528525
         --- l  ekb(1:nproj) -->
             0    6.310228
 pspatm: atomic psp has been read  and splines computed

   2.47252491E-01                                ecore*ucvol(ha*bohr**3)

-inwffil : will read wavefunctions from disk file input_data/idat_WFK

 ==>  initialize data related to q vector <==

 The list of irreducible perturbations for this q vector is:
    1)    idir= 1    ipert=   1
    2)    idir= 2    ipert=   1
    3)    idir= 3    ipert=   1
    4)    idir= 1    ipert=   2
    5)    idir= 2    ipert=   2
    6)    idir= 3    ipert=   2

 Perturbation wavevector (in red.coord.)   0.000000  0.000000  0.000000
 Perturbation : displacement of atom   1   along direction   1
 The set of symmetries contains only one element for this perturbation.
 symkpt : the number of k-points, thanks to the symmetries,
 is reduced to    36 .

[...]

-inwffil : will read wavefunctions from disk file input_data/idat_WFQ
 Initialisation of the first-order wave-functions :
  ireadwf=   0

     iter   2DEtotal(Ha)        deltaE(Ha) residm    vres2
-ETOT  1   1.0755307365599     -3.224E+00 3.458E-16 7.213E+00
 ETOT  2   1.0625906866059     -1.294E-02 2.528E-17 1.197E-01
 ETOT  3   1.0622377210502     -3.530E-04 6.600E-16 4.912E-03
 ETOT  4   1.0622303079191     -7.413E-06 3.871E-16 3.370E-05
 ETOT  5   1.0622302809549     -2.696E-08 3.478E-16 8.221E-08
 ETOT  6   1.0622302808865     -6.844E-11 3.932E-17 6.386E-10
 ETOT  7   1.0622302808860     -4.912E-13 7.186E-16 1.469E-12
 ETOT  8   1.0622302808860     -1.776E-15 4.574E-16 7.560E-16
 ETOT  9   1.0622302808860     -8.882E-16 4.642E-16 4.389E-18

 At SCF step    9       vres2   =  4.39E-18 < tolvrs=  1.00E-16 =>converged.

 ----iterations are completed or convergence reached----

 Mean square residual over all n,k,spin=   3.6092E-18; max=  4.6417E-16

 Thirteen components of 2nd-order total energy (hartree) are
 1,2,3: 0th-order hamiltonian combined with 1st-order wavefunctions
     kin0=   2.90349396E+00 eigvalue=  -1.55062744E-02  local=  -1.01474299E+00
 4,5,6: 1st-order hamiltonian combined with 1st and 0th-order wfs
 loc psp =  -1.09800429E-01  Hartree=   4.05351110E-02     xc=  -2.71912677E-02
 note that "loc psp" includes a xc core correction that could be resolved
 7,8,9: eventually, occupation + non-local contributions
    edocc=   5.91274858E-01     enl0=   7.59062802E-01   enl1=  -6.36405197E+00
 1-9 gives the relaxation energy (to be shifted if some occ is /=2.0)
   erelax=  -3.23692620E+00
 10,11,12 Non-relaxation  contributions : frozen-wavefunctions and Ewald
 fr.local=  -8.57337473E+00 fr.nonlo=   5.48739048E+00  Ewald=   7.61300822E+00
 13,14 Frozen wf xc core corrections (1) and (2)
 frxc 1  =  -8.49848590E-02  frxc 2 =  -1.42882643E-01
 Resulting in :
 2DEtotal=    0.1062230281E+01 Ha. Also 2DEtotal=    0.289047559209E+02 eV
    (2DErelax=   -3.2369261993E+00 Ha. 2DEnonrelax=    4.2991564802E+00 Ha)
    (  non-var. 2DEtotal :    1.0622302809E+00 Ha)

[...]

 Perturbation wavevector (in red.coord.)   0.000000  0.000000  0.000000
 Perturbation : displacement of atom   2   along direction   3
 The set of symmetries contains only one element for this perturbation.
 symkpt : the number of k-points, thanks to the symmetries,
 is reduced to    36 .

-inwffil : will read wavefunctions from disk file input_data/idat_WFK

-inwffil : will read wavefunctions from disk file input_data/idat_WFQ
 Initialisation of the first-order wave-functions :
  ireadwf=   0

     iter   2DEtotal(Ha)        deltaE(Ha) residm    vres2
-ETOT  1   183.21321364952     -8.746E+02 7.404E-17 7.080E+04
 ETOT  2   15.292241767045     -1.679E+02 3.035E-16 1.449E+03
 ETOT  3   10.075916469916     -5.216E+00 1.074E-15 1.476E+01
 ETOT  4   10.052734917328     -2.318E-02 6.994E-17 2.787E-02
 ETOT  5   10.052709434672     -2.548E-05 2.423E-16 2.015E-04
 ETOT  6   10.052709292171     -1.425E-07 1.103E-15 1.486E-06
 ETOT  7   10.052709291175     -9.968E-10 3.341E-17 2.402E-09
 ETOT  8   10.052709291172     -2.728E-12 2.034E-15 1.866E-12
 ETOT  9   10.052709291167     -5.002E-12 1.825E-15 3.982E-15
 ETOT 10   10.052709291172      5.002E-12 1.859E-15 1.964E-15
 ETOT 11   10.052709291176      4.547E-12 1.888E-15 1.681E-18

 At SCF step   11       vres2   =  1.68E-18 < tolvrs=  1.00E-16 =>converged.

 ----iterations are completed or convergence reached----

 Mean square residual over all n,k,spin=   7.3946E-18; max=  1.8884E-15

 Thirteen components of 2nd-order total energy (hartree) are
 1,2,3: 0th-order hamiltonian combined with 1st-order wavefunctions
     kin0=   1.07028561E+03 eigvalue=  -6.18072113E+00  local=  -4.29407720E+02
 4,5,6: 1st-order hamiltonian combined with 1st and 0th-order wfs
 loc psp =  -1.60903913E+03  Hartree=   3.30633301E+02     xc=  -7.79352149E+01
 note that "loc psp" includes a xc core correction that could be resolved
 7,8,9: eventually, occupation + non-local contributions
    edocc=   4.78369004E+01     enl0=   1.12512931E+02   enl1=  -4.86451041E+02
 1-9 gives the relaxation energy (to be shifted if some occ is /=2.0)
   erelax=  -1.04774509E+03
 10,11,12 Non-relaxation  contributions : frozen-wavefunctions and Ewald
 fr.local=   8.02347471E+02 fr.nonlo=   2.41059761E+02  Ewald=   7.61300822E+00
 13,14 Frozen wf xc core corrections (1) and (2)
 frxc 1  =  -1.17181352E+02  frxc 2 =   1.23958908E+02
 Resulting in :
 2DEtotal=    0.1005270929E+02 Ha. Also 2DEtotal=    0.273548131355E+03 eV
    (2DErelax=   -1.0477450873E+03 Ha. 2DEnonrelax=    1.0577977966E+03 Ha)
    (  non-var. 2DEtotal :    1.0052709291E+01 Ha)

 ---- first-order wavefunction calculations are completed ----

 ==> Compute Derivative Database <==

  2nd-order matrix (non-cartesian coordinates, masses not included,
   asr not included )
     j1       j2             matrix element
  dir pert dir pert     real part     imaginary part

   1    1   1    1         1.0622302809         0.0000000000
   1    1   2    1         0.5311151404         0.0000000000
   1    1   3    1         0.5311151406         0.0000000000
   1    1   1    2        -1.0663901932         0.0000000000
   1    1   2    2        -0.5331950956         0.0000000000
   1    1   3    2        -0.5331950953         0.0000000000

[...]

  Dynamical matrix, in cartesian coordinates,
   if specified in the inputs, asr has been imposed
     j1       j2             matrix element
  dir pert dir pert     real part    imaginary part

[...]

   3    2   1    1        -0.0000000000         0.0000000000
   3    2   2    1        -0.0000000000         0.0000000000
   3    2   3    1        -0.0359439206         0.0000000000
   3    2   1    2        -0.0000000005         0.0000000000
   3    2   2    2         0.0000000004         0.0000000000
   3    2   3    2         0.3388382478         0.0000000000

  Phonon wavevector (reduced coordinates) :  0.00000  0.00000  0.00000
 Phonon energies in Hartree :
   1.558482E-03  1.558482E-03  1.558482E-03  3.191370E-03  3.191370E-03
   3.191370E-03
 Phonon energies in meV     :
-  4.240845E+01  4.240845E+01  4.240845E+01  8.684159E+01  8.684159E+01
-  8.684159E+01
 Phonon frequencies in cm-1    :
-  3.420473E+02  3.420473E+02  3.420473E+02  7.004247E+02  7.004247E+02
-  7.004247E+02
 Phonon frequencies in Thz     :
-  1.025432E+01  1.025432E+01  1.025432E+01  2.099821E+01  2.099821E+01
-  2.099821E+01
 Phonon energies in Kelvin  :
-  4.921291E+02  4.921291E+02  4.921291E+02  1.007754E+03  1.007754E+03
-  1.007754E+03

== END DATASET(S) ==============================================================

 -outvars: echo values of variables after computation  --------
            acell      1.0000000000E+00  1.0000000000E+00  1.0000000000E+00 Bohr
              amu      6.94100000E+00  1.89984032E+01
           diemac      9.00000000E+00
             ecut      1.00000000E+01 Hartree
           enunit           2
           etotal      1.0052709291E+01
            fcart      0.0000000000E+00  0.0000000000E+00  0.0000000000E+00
                       0.0000000000E+00  0.0000000000E+00  0.0000000000E+00
-          fftalg         112
           irdden           1
           irdwfk           1
           irdwfq           1
           istwfk        1    0    1    0    0    0    0    0    1    0
                         1    0    0    0    0    0    0    0    0    0
                         0    0    0    0    0    0    0    0    0    0
                         0    0    1    0    1    0    0    0    0    0
                         1    0    1    0    0    0    0    0    0    0
                       outvar_i_n : Printing only first  50 k-points.
              kpt      0.00000000E+00  0.00000000E+00  0.00000000E+00
                       2.50000000E-01  0.00000000E+00  0.00000000E+00
                       5.00000000E-01  0.00000000E+00  0.00000000E+00
                      -2.50000000E-01  0.00000000E+00  0.00000000E+00
                       0.00000000E+00  2.50000000E-01  0.00000000E+00
                       2.50000000E-01  2.50000000E-01  0.00000000E+00
                       5.00000000E-01  2.50000000E-01  0.00000000E+00
                      -2.50000000E-01  2.50000000E-01  0.00000000E+00
                       0.00000000E+00  5.00000000E-01  0.00000000E+00
                       2.50000000E-01  5.00000000E-01  0.00000000E+00
                       5.00000000E-01  5.00000000E-01  0.00000000E+00
                      -2.50000000E-01  5.00000000E-01  0.00000000E+00
                       0.00000000E+00 -2.50000000E-01  0.00000000E+00
                       2.50000000E-01 -2.50000000E-01  0.00000000E+00
                       5.00000000E-01 -2.50000000E-01  0.00000000E+00
                      -2.50000000E-01 -2.50000000E-01  0.00000000E+00
                       0.00000000E+00  0.00000000E+00  2.50000000E-01
                       2.50000000E-01  0.00000000E+00  2.50000000E-01
                       5.00000000E-01  0.00000000E+00  2.50000000E-01
                      -2.50000000E-01  0.00000000E+00  2.50000000E-01
                       0.00000000E+00  2.50000000E-01  2.50000000E-01
                       2.50000000E-01  2.50000000E-01  2.50000000E-01
                       5.00000000E-01  2.50000000E-01  2.50000000E-01
                      -2.50000000E-01  2.50000000E-01  2.50000000E-01
                       0.00000000E+00  5.00000000E-01  2.50000000E-01
                       2.50000000E-01  5.00000000E-01  2.50000000E-01
                       5.00000000E-01  5.00000000E-01  2.50000000E-01
                      -2.50000000E-01  5.00000000E-01  2.50000000E-01
                       0.00000000E+00 -2.50000000E-01  2.50000000E-01
                       2.50000000E-01 -2.50000000E-01  2.50000000E-01
                       5.00000000E-01 -2.50000000E-01  2.50000000E-01
                      -2.50000000E-01 -2.50000000E-01  2.50000000E-01
                       0.00000000E+00  0.00000000E+00  5.00000000E-01
                       2.50000000E-01  0.00000000E+00  5.00000000E-01
                       5.00000000E-01  0.00000000E+00  5.00000000E-01
                      -2.50000000E-01  0.00000000E+00  5.00000000E-01
                       0.00000000E+00  2.50000000E-01  5.00000000E-01
                       2.50000000E-01  2.50000000E-01  5.00000000E-01
                       5.00000000E-01  2.50000000E-01  5.00000000E-01
                      -2.50000000E-01  2.50000000E-01  5.00000000E-01
                       0.00000000E+00  5.00000000E-01  5.00000000E-01
                       2.50000000E-01  5.00000000E-01  5.00000000E-01
                       5.00000000E-01  5.00000000E-01  5.00000000E-01
                      -2.50000000E-01  5.00000000E-01  5.00000000E-01
                       0.00000000E+00 -2.50000000E-01  5.00000000E-01
                       2.50000000E-01 -2.50000000E-01  5.00000000E-01
                       5.00000000E-01 -2.50000000E-01  5.00000000E-01
                      -2.50000000E-01 -2.50000000E-01  5.00000000E-01
                       0.00000000E+00  0.00000000E+00 -2.50000000E-01
                       2.50000000E-01  0.00000000E+00 -2.50000000E-01
                       outvar_i_n : Printing only first  50 k-points.
           kptopt           3
         kptrlatt        4    0    0      0    4    0      0    0    4
          kptrlen      2.17873966E+01
P           mkmem          16
P          mkqmem          16
P          mk1mem          16
            natom           2
            nband           8
            ngfft          16      16      16
             nkpt          64
           nnsclo          40
             nqpt           1
            nstep          60
             nsym           1
           ntypat           2
              occ      2.000000  2.000000  2.000000  2.000000  0.000000  0.000000
                       0.000000  0.000000
        optdriver           1
          rfatpol           1       2
            rfdir           1       1       1
           rfphon           1
            rprim      0.0000000000E+00  3.8515039744E+00  3.8515039744E+00
                       3.8515039744E+00  0.0000000000E+00  3.8515039744E+00
                       3.8515039744E+00  3.8515039744E+00  0.0000000000E+00
          spgroup           1
           strten      0.0000000000E+00  0.0000000000E+00  0.0000000000E+00
                       0.0000000000E+00  0.0000000000E+00  0.0000000000E+00
           tolvrs      1.00000000E-16
            typat      1  2
              wtk        0.01563    0.01563    0.01563    0.01563    0.01563    0.01563
                         0.01563    0.01563    0.01563    0.01563    0.01563    0.01563
                         0.01563    0.01563    0.01563    0.01563    0.01563    0.01563
                         0.01563    0.01563    0.01563    0.01563    0.01563    0.01563
                         0.01563    0.01563    0.01563    0.01563    0.01563    0.01563
                         0.01563    0.01563    0.01563    0.01563    0.01563    0.01563
                         0.01563    0.01563    0.01563    0.01563    0.01563    0.01563
                         0.01563    0.01563    0.01563    0.01563    0.01563    0.01563
                         0.01563    0.01563
                       outvars : Printing only first  50 k-points.
           xangst      0.0000000000E+00  0.0000000000E+00  0.0000000000E+00
                       2.0381281221E+00  2.0381281221E+00  2.0381281221E+00
            xcart      0.0000000000E+00  0.0000000000E+00  0.0000000000E+00
                       3.8515039744E+00  3.8515039744E+00  3.8515039744E+00
             xred      0.0000000000E+00  0.0000000000E+00  0.0000000000E+00
                       5.0000000000E-01  5.0000000000E-01  5.0000000000E-01
            znucl        3.00000    9.00000

- Timing analysis has been suppressed with timopt=0

 Suggested references for the acknowledgment of ABINIT usage.

 Calculation completed.
.Delivered   0 WARNINGs and   0 COMMENTs to log file.