.Version 8.3.1 of ABINIT

 ABINIT is a project of the Universite Catholique de Louvain,
 Corning Inc. and other collaborators, see ~abinit/doc/developers/contributors.txt .
 Please read ~abinit/doc/users/acknowledgments.html for suggested
 acknowledgments of the ABINIT effort.

.Starting date : Tue 11 Apr 2017.
- ( at 16h11 )

- input  file    -> calc.in
- output file    -> calc.out
- root for input  files -> input_data/idat
- root for output files -> out_data/odat

 Symmetries : space group P1 (#  1); Bravais aP (primitive triclinic)
     intxc =       0      iscf =      -2    lmnmax =       1     lnmax =       1
     mgfft =      16  mpssoang =       2    mqgrid =    3001     natom =       2
  nloc_mem =       1    nspden =       1   nspinor =       1    nsppol =       1
      nsym =       1    n1xccc =    2501    ntypat =       2    occopt =       1
   xclevel =       1
-    mband =           8        mffmem =           1         mkmem =           1
-   mkqmem =           1        mk1mem =           1           mpw =         190
      nfft =        4096          nkpt =           1
  Rough estimation (10% accuracy) of disk space for files :

------------- Echo of variables that govern the present computation ------------
-
- outvars: echo of selected default values
-   iomode0 =  0 , fftalg0 =112 , wfoptalg0 =  0
-
- outvars: echo of global parameters not present in the input file
-  max_nthreads =    0
-
 -outvars: echo values of preprocessed input variables --------
            acell      1.0000000000E+00  1.0000000000E+00  1.0000000000E+00 Bohr
              amu      6.94100000E+00  1.89984032E+01
        autoparal           1
           diemac      9.00000000E+00
             ecut      1.00000000E+01 Hartree
    elph2_imagden      1.83746627E-03 Hartree
           enunit           2
-          fftalg         112
          ieig2rf           5
           irdwfk           1
           irdwfq           1
          ird1den           1
             iscf          -2
           istwfk        1
           kptopt           3
         kptrlatt        1    0    0      0    1    0      0    0    1
          kptrlen      5.44684916E+00
P           mkmem           1
P          mkqmem           1
P          mk1mem           1
            natom           2
            nband           8
            ngfft          16      16      16
             nkpt           1
           nnsclo          40
             nqpt           1
             nsym           1
           ntypat           2
        optdriver           1
        optforces           1
              qpt      5.00000000E-01  5.00000000E-01  0.00000000E+00
          rfatpol           1       2
            rfdir           1       1       1
           rfphon           1
            rprim      0.0000000000E+00  3.8515039744E+00  3.8515039744E+00
                       3.8515039744E+00  0.0000000000E+00  3.8515039744E+00
                       3.8515039744E+00  3.8515039744E+00  0.0000000000E+00
          spgroup           1
           tolwfr      1.00000000E-18
            typat      1  2
           xangst      0.0000000000E+00  0.0000000000E+00  0.0000000000E+00
                       2.0381281221E+00  2.0381281221E+00  2.0381281221E+00
            xcart      0.0000000000E+00  0.0000000000E+00  0.0000000000E+00
                       3.8515039744E+00  3.8515039744E+00  3.8515039744E+00
             xred      0.0000000000E+00  0.0000000000E+00  0.0000000000E+00
                       5.0000000000E-01  5.0000000000E-01  5.0000000000E-01
            znucl        3.00000    9.00000

 chkinp: Checking input parameters for consistency.

== DATASET  1 ==================================================================
-   nproc =    4

 Real(R)+Recip(G) space primitive vectors, cartesian coordinates (Bohr,Bohr^-1):
 R(1)=  0.0000000  3.8515040  3.8515040  G(1)= -0.1298194  0.1298194  0.1298194
 R(2)=  3.8515040  0.0000000  3.8515040  G(2)=  0.1298194 -0.1298194  0.1298194
 R(3)=  3.8515040  3.8515040  0.0000000  G(3)=  0.1298194  0.1298194 -0.1298194
 Unit cell volume ucvol=  1.1426706E+02 bohr^3
 Angles (23,13,12)=  6.00000000E+01  6.00000000E+01  6.00000000E+01 degrees
 setup1 : take into account q-point for computing boxcut.

 getcut: wavevector=  0.5000  0.5000  0.0000  ngfft=  16  16  16
         ecut(hartree)=     10.000   => boxcut(ratio)=   1.93885

--- Pseudopotential description ------------------------------------------------
- pspini: atom type   1  psp file is ../../../../Data/Pseudos/03-Li.LDA.TM.pspnc
- pspatm: opening atomic psp file    ../../../../Data/Pseudos/03-Li.LDA.TM.pspnc
-  Troullier-Martins psp for element  Li        Thu Oct 27 17:29:06 EDT 1994
-  3.00000   1.00000    940714                znucl, zion, pspdat
    1    1    1    1      2001   0.00000      pspcod,pspxc,lmax,lloc,mmax,r2well
    0   2.534   6.726    1   2.4315963        l,e99.0,e99.9,nproj,rcpsp
   0.00000000   0.00000000   0.00000000   0.00000000     rms, ekb1, ekb2, epsatm
    1   3.283   5.836    0   2.4315963        l,e99.0,e99.9,nproj,rcpsp
   0.00000000   0.00000000   0.00000000   0.00000000     rms, ekb1, ekb2, epsatm
    2.44451305764117    0.01373030920382    0.17502673260160   rchrg,fchrg,qchrg
 pspatm: epsatm=   -1.77437869
         --- l  ekb(1:nproj) -->
             0    1.242797
 pspatm: atomic psp has been read  and splines computed

- pspini: atom type   2  psp file is ../../../../Data/Pseudos/09-F.LDA.TM.pspnc
- pspatm: opening atomic psp file    ../../../../Data/Pseudos/09-F.LDA.TM.pspnc
-  Troullier-Martins psp for element  F         Thu Oct 27 17:30:08 EDT 1994
-  9.00000   7.00000    940714                znucl, zion, pspdat
    1    1    1    1      2001   0.00000      pspcod,pspxc,lmax,lloc,mmax,r2well
    0   6.771  17.439    1   1.3876018        l,e99.0,e99.9,nproj,rcpsp
   0.00000000   0.00000000   0.00000000   0.00000000     rms, ekb1, ekb2, epsatm
    1  24.372  32.350    0   1.3876018        l,e99.0,e99.9,nproj,rcpsp
   0.00000000   0.00000000   0.00000000   0.00000000     rms, ekb1, ekb2, epsatm
    0.49406148701180    6.36128955091623    0.66947621353748   rchrg,fchrg,qchrg
 pspatm: epsatm=    1.80528525
         --- l  ekb(1:nproj) -->
             0    6.310228
 pspatm: atomic psp has been read  and splines computed

-inwffil : will read wavefunctions from disk file input_data/idat_WFK

 ==>  initialize data related to q vector <==

 The list of irreducible perturbations for this q vector is:
    1)    idir= 1    ipert=   1
    2)    idir= 2    ipert=   1
    3)    idir= 3    ipert=   1
    4)    idir= 1    ipert=   2
    5)    idir= 2    ipert=   2
    6)    idir= 3    ipert=   2

 Perturbation wavevector (in red.coord.)   0.500000  0.500000  0.000000
 Perturbation : displacement of atom   1   along direction   1
 The set of symmetries contains only one element for this perturbation.
 symkpt : not enough symmetry to change the number of k points.

[...]

-inwffil : will read wavefunctions from disk file input_data/idat_WFQ
 Initialisation of the first-order wave-functions :
  ireadwf=   0

 ----iterations are completed or convergence reached----

 Mean square residual over all n,k,spin=  -7.5000E-01; max=  8.5854E-19

 Thirteen components of 2nd-order total energy (hartree) are
 1,2,3: 0th-order hamiltonian combined with 1st-order wavefunctions
     kin0=   2.48600159E+00 eigvalue=  -1.15277297E-01  local=  -8.66881573E-01
 4,5,6: 1st-order hamiltonian combined with 1st and 0th-order wfs
 loc psp =  -2.67152441E+00  Hartree=   5.82975337E-01     xc=  -2.33015649E-01
 note that "loc psp" includes a xc core correction that could be resolved
 7,8,9: eventually, occupation + non-local contributions
    edocc=   2.73189398E-01     enl0=   5.67159892E-01   enl1=  -3.69049421E+00
 1-9 gives the relaxation energy (to be shifted if some occ is /=2.0)
   erelax=  -3.66786692E+00
 10,11,12 Non-relaxation  contributions : frozen-wavefunctions and Ewald
 fr.local=  -8.18155753E+00 fr.nonlo=   3.22116259E+00  Ewald=   8.98189078E+00
 13,14 Frozen wf xc core corrections (1) and (2)
 frxc 1  =  -1.22390774E-01  frxc 2 =  -7.92082621E-02
 Resulting in :
 2DEtotal=    0.1520298768E+00 Ha. Also 2DEtotal=    0.413694333711E+01 eV
    (2DErelax=   -3.6678669240E+00 Ha. 2DEnonrelax=    3.8198968008E+00 Ha)
    (  non-var. 2DEtotal :    6.3888749114E-01 Ha)

[...]

 Perturbation wavevector (in red.coord.)   0.500000  0.500000  0.000000
 Perturbation : displacement of atom   2   along direction   3
 The set of symmetries contains only one element for this perturbation.
 symkpt : not enough symmetry to change the number of k points.

-inwffil : will read wavefunctions from disk file input_data/idat_WFK

-inwffil : will read wavefunctions from disk file input_data/idat_WFQ
 Initialisation of the first-order wave-functions :
  ireadwf=   0

 ----iterations are completed or convergence reached----

 Mean square residual over all n,k,spin=  -7.5000E-01; max=  4.7067E-19

 Thirteen components of 2nd-order total energy (hartree) are
 1,2,3: 0th-order hamiltonian combined with 1st-order wavefunctions
     kin0=   1.27378823E+03 eigvalue=  -2.44872850E+01  local=  -4.56020598E+02
 4,5,6: 1st-order hamiltonian combined with 1st and 0th-order wfs
 loc psp =  -1.67102333E+03  Hartree=   3.59444248E+02     xc=  -7.53910444E+01
 note that "loc psp" includes a xc core correction that could be resolved
 7,8,9: eventually, occupation + non-local contributions
    edocc=   6.09220725E+01     enl0=   1.32265021E+02   enl1=  -7.03448393E+02
 1-9 gives the relaxation energy (to be shifted if some occ is /=2.0)
   erelax=  -1.10395108E+03
 10,11,12 Non-relaxation  contributions : frozen-wavefunctions and Ewald
 fr.local=   8.64637398E+02 fr.nonlo=   3.88603881E+02  Ewald=   3.33356900E+01
 13,14 Frozen wf xc core corrections (1) and (2)
 frxc 1  =  -1.15383370E+02  frxc 2 =   1.19710848E+02
 Resulting in :
 2DEtotal=    0.1869533702E+03 Ha. Also 2DEtotal=    0.508725991921E+04 eV
    (2DErelax=   -1.1039510771E+03 Ha. 2DEnonrelax=    1.2909044473E+03 Ha)
    (  non-var. 2DEtotal :    1.0366858531E+02 Ha)

 ---- first-order wavefunction calculations are completed ----

 ==> Compute Derivative Database <==

  2nd-order matrix (non-cartesian coordinates, masses not included,
   asr not included )
     j1       j2             matrix element
  dir pert dir pert     real part     imaginary part

   1    1   1    1         0.6388867544         0.0000000000
   1    1   2    1         0.3362844046         0.0000000001
   1    1   3    1         0.3027441500        -0.0000000001
   1    1   1    2         0.0143164621         0.0000000003
   1    1   2    2        -0.2304821416        -0.0000000005
   1    1   3    2         0.2413890515        -0.0000000003

[...]

  Dynamical matrix, in cartesian coordinates,
   if specified in the inputs, asr has been imposed
     j1       j2             matrix element
  dir pert dir pert     real part    imaginary part

[...]

   3    2   1    1         0.0000008547         0.0000000000
   3    2   2    1         0.0000008500        -0.0000000000
   3    2   3    1         0.0806869668         0.0000000000
   3    2   1    2         0.0001174621        -0.0000000001
   3    2   2    2         0.0001171384         0.0000000001
   3    2   3    2         6.5174255525         0.0000000003

  Phonon wavevector (reduced coordinates) :  0.50000  0.50000  0.00000
 Phonon energies in Hartree :
   1.224577E-03  1.225797E-03  1.333522E-03  9.922997E-03  1.005267E-02
   1.371875E-02
 Phonon energies in meV     :
-  3.332243E+01  3.335563E+01  3.628697E+01  2.700185E+02  2.735471E+02
-  3.733061E+02
 Phonon frequencies in cm-1    :
-  2.687636E+02  2.690314E+02  2.926742E+02  2.177846E+03  2.206306E+03
-  3.010917E+03
 Phonon frequencies in Thz     :
-  8.057330E+00  8.065357E+00  8.774152E+00  6.529018E+01  6.614340E+01
-  9.026503E+01
 Phonon energies in Kelvin  :
-  3.866904E+02  3.870756E+02  4.210924E+02  3.133431E+03  3.174379E+03
-  4.332033E+03
 Components of second-order derivatives of the electronic energy, EIGR2D.
 For automatic tests, printing the matrix for the first k-point, first band, first atom.
   1   1   1   1   -1.7910855605E-02    0.0000000000E+00
   1   1   2   1   -1.2877272969E-02    0.0000000000E+00
   1   1   3   1   -5.0188867896E-03    0.0000000000E+00
   2   1   1   1   -1.2877272969E-02    0.0000000000E+00
   2   1   2   1   -1.7915558770E-02    0.0000000000E+00
   2   1   3   1   -5.0235899745E-03    0.0000000000E+00
   3   1   1   1   -5.0188867896E-03    0.0000000000E+00
   3   1   2   1   -5.0235899745E-03    0.0000000000E+00
   3   1   3   1   -1.0042478976E-02    0.0000000000E+00

 ---- T=0 shift of eigenenergies due to electron-phonon interation at q ----
 Warning : the total shift must be computed through anaddb,
 here, only the contribution of one q point is printed.
 Print first the electronic eigenvalues, then the q-dependent Fan shift of eigenvalues.

 Eigenvalues (hartree) for nkpt=   1  k points:
 kpt#   1, nband=  8, wtk=  1.00000, kpt=  0.0000  0.0000  0.0000 (reduced coord)
  -1.08548    0.09394    0.09394    0.09394    0.25154    0.86290    0.86290    0.86290
 Eigenvalues (   eV  ) for nkpt=   1  k points:
 kpt#   1, nband=  8, wtk=  1.00000, kpt=  0.0000  0.0000  0.0000 (reduced coord)
 -29.53730    2.55633    2.55633    2.55633    6.84481   23.48062   23.48062   23.48062

 Fan corrections to eigenvalues at T=0 (hartree) for nkpt=   1  k points:
  (in case of degenerate eigenvalues, averaged derivative)
 kpt#   1, nband=  8, wtk=  1.00000, kpt=  0.0000  0.0000  0.0000 (reduced coord)
  -0.00347   -0.01034   -0.01034   -0.01034   -0.00144    0.00691    0.00691    0.00691
 Fan corrections to eigenvalues at T=0 (   eV  ) for nkpt=   1  k points:
 kpt#   1, nband=  8, wtk=  1.00000, kpt=  0.0000  0.0000  0.0000 (reduced coord)
  -0.09448   -0.28137   -0.28137   -0.28137   -0.03906    0.18797    0.18797    0.18797

== END DATASET(S) ==============================================================

 -outvars: echo values of variables after computation  --------
            acell      1.0000000000E+00  1.0000000000E+00  1.0000000000E+00 Bohr
              amu      6.94100000E+00  1.89984032E+01
        autoparal           1
           diemac      9.00000000E+00
             ecut      1.00000000E+01 Hartree
    elph2_imagden      1.83746627E-03 Hartree
           enunit           2
-          fftalg         112
          ieig2rf           5
           irdwfk           1
           irdwfq           1
          ird1den           1
             iscf          -2
           istwfk        1
           kptopt           3
         kptrlatt        1    0    0      0    1    0      0    0    1
          kptrlen      5.44684916E+00
P           mkmem           1
P          mkqmem           1
P          mk1mem           1
            natom           2
            nband           8
            ngfft          16      16      16
             nkpt           1
           nnsclo          40
             nqpt           1
             nsym           1
           ntypat           2
        optdriver           1
        optforces           1
              qpt      5.00000000E-01  5.00000000E-01  0.00000000E+00
          rfatpol           1       2
            rfdir           1       1       1
           rfphon           1
            rprim      0.0000000000E+00  3.8515039744E+00  3.8515039744E+00
                       3.8515039744E+00  0.0000000000E+00  3.8515039744E+00
                       3.8515039744E+00  3.8515039744E+00  0.0000000000E+00
          spgroup           1
           tolwfr      1.00000000E-18
            typat      1  2
           xangst      0.0000000000E+00  0.0000000000E+00  0.0000000000E+00
                       2.0381281221E+00  2.0381281221E+00  2.0381281221E+00
            xcart      0.0000000000E+00  0.0000000000E+00  0.0000000000E+00
                       3.8515039744E+00  3.8515039744E+00  3.8515039744E+00
             xred      0.0000000000E+00  0.0000000000E+00  0.0000000000E+00
                       5.0000000000E-01  5.0000000000E-01  5.0000000000E-01
            znucl        3.00000    9.00000

- Timing analysis has been suppressed with timopt=0

 Suggested references for the acknowledgment of ABINIT usage.

 Calculation completed.
.Delivered   0 WARNINGs and   0 COMMENTs to log file.